NAME lp_typeD_4678
OBJSENSE MAX
ROWS
 N  OBJ
 L  c0      
 L  c1      
 G  c2      
 G  c3      
 L  c_key_upper
 G  c_key_lower
 G  _chain_constr_1
 G  _chain_constr_2
 G  _chain_constr_3
 G  _chain_constr_4
 G  _chain_constr_5
 G  _chain_cycle
COLUMNS
    x0        OBJ       0.969193565783185
    x0        c0        5.8732207230939171e-01
    x0        c1        0.809552679877252
    x0        c2        0.683631613514883
    x0        c3        1.8865259434911026e+00
    x0        c_key_upper  1.1364538808313875e+00
    x0        c_key_lower  1.1364538808313875e+00
    x1        OBJ       6.1121430959860090e-01
    x1        c0        7.0339433590171141e-01
    x1        c1        1.7673634059631638e+00
    x1        c2        0.646471349968982
    x1        c3        1.4907248642315576e+00
    x1        c_key_upper  1.0106514808772324e+00
    x1        c_key_lower  1.0106514808772324e+00
    x2        OBJ       6.9229163729871457e-01
    x2        c0        8.0200042700824714e-01
    x2        c1        1.3978911335310442e+00
    x2        c2        1.3903492752577677e+00
    x2        c3        1.6820108382743952e+00
    x2        c_key_upper  1.2604820106559154e+00
    x2        c_key_lower  1.2604820106559154e+00
    x3        OBJ       1.2171276282214250e+00
    x3        c0        1.6868551264952791e+00
    x3        c1        1.2479548778944771e+00
    x3        c2        1.1229923598067417e+00
    x3        c3        1.8436536827378465e+00
    x3        c_key_upper  1.8068813703098288e+00
    x3        c_key_lower  1.8068813703098288e+00
    x4        OBJ       9.0906067204070629e-01
    x4        c0        1.8935243172955418e+00
    x4        c1        7.1982545655741248e-01
    x4        c2        1.5025208885926369e+00
    x4        c3        1.9873241390607908e+00
    x4        c_key_upper  1.6062048612940778e+00
    x4        c_key_lower  1.6062048612940778e+00
    x5        OBJ       9.1468391726796427e-01
    x5        c0        9.1792438540239019e-01
    x5        c1        0.916183513367949
    x5        c2        8.2352884942323035e-01
    x5        c3        1.06534675024088
    x5        c_key_upper  1.0318835982817312e+00
    x5        c_key_lower  1.0318835982817312e+00
    x6        OBJ       1.3276935735255875e+00
    x6        c0        1.8983038134573815e+00
    x6        c1        1.5456176349593909e+00
    x6        c2        1.9999680559885245e+00
    x6        c3        1.6290464669331459e+00
    x6        c_key_upper  1.32402659478131
    x6        c_key_lower  1.32402659478131
    x7        OBJ       1.4499134857454596e+00
    x7        c0        1.4940303270331323e+00
    x7        c1        6.0376060881931570e-01
    x7        c2        1.1603129727805446e+00
    x7        c3        1.1070672265183865e+00
    x7        c_key_upper  1.8155693459634619e+00
    x7        c_key_lower  1.8155693459634619e+00
    x8        OBJ       7.3950622091837215e-01
    x8        c0        1.1330117583000998e+00
    x8        c1        1.1033180808586793e+00
    x8        c2        1.5483164066773467e+00
    x8        c3        1.1225233789029079e+00
    x8        c_key_upper  1.3547357191266260e+00
    x8        c_key_lower  1.3547357191266260e+00
    x9        OBJ       7.6463020113986946e-01
    x9        c0        1.3774031012134551e+00
    x9        c1        9.1004671703563589e-01
    x9        c2        8.7196498644735687e-01
    x9        c3        6.3973345778427415e-01
    x9        c_key_upper  1.1905081345615636e+00
    x9        c_key_lower  1.1905081345615636e+00
    _chain_var_0  _chain_constr_1  -1
    _chain_var_0  _chain_cycle  1
    _chain_var_1  _chain_constr_1  1
    _chain_var_1  _chain_constr_2  -1
    _chain_var_2  _chain_constr_2  1
    _chain_var_2  _chain_constr_3  -1
    _chain_var_3  _chain_constr_3  1
    _chain_var_3  _chain_constr_4  -1
    _chain_var_4  _chain_constr_4  1
    _chain_var_4  _chain_constr_5  -1
    _chain_var_5  _chain_constr_5  1
    _chain_var_5  _chain_cycle  -1
RHS
    RHS1      c0        6.3219751814544018e+01
    RHS1      c1        4.9020195470919191e+01
    RHS1      c2        1.2523986485693220e+01
    RHS1      c3        2.0392974098811454e+01
    RHS1      c_key_upper  6.7686984983415670e+01
    RHS1      c_key_lower  3.3843492491707835e+01
    RHS1      _chain_constr_1  10
    RHS1      _chain_constr_2  10
    RHS1      _chain_constr_3  10
    RHS1      _chain_constr_4  10
    RHS1      _chain_constr_5  10
    RHS1      _chain_cycle  10
BOUNDS
 UP BND1      x0        10
 UP BND1      x1        10
 UP BND1      x2        10
 UP BND1      x3        10
 UP BND1      x4        10
 UP BND1      x5        10
 UP BND1      x6        10
 UP BND1      x7        10
 UP BND1      x8        10
 UP BND1      x9        10
 UP BND1      _chain_var_0  100
 UP BND1      _chain_var_1  100
 UP BND1      _chain_var_2  100
 UP BND1      _chain_var_3  100
 UP BND1      _chain_var_4  100
 UP BND1      _chain_var_5  100
ENDATA
